p cnf 10 15
-7 -4 -6 8 3 0
-7 9 1 -5 6 0
-6 -8 -2 -4 -9 0
-5 -4 3 -7 -8 0
-2 4 -10 -6 -5 0
-5 -6 4 -7 10 0
8 -2 3 -1 -7 0
6 10 5 3 -2 0
3 -7 -1 -9 8 0
2 -7 4 -1 -6 0
-5 -8 -3 10 1 0
2 -5 -1 4 -8 0
2 7 -1 10 8 0
7 -1 2 -8 5 0
-6 -2 -5 -1 9 0
